p cnf 44 175
1 2 3 4 0
5 6 7 8 0
9 10 11 12 0
13 14 15 16 0
17 18 19 20 0
21 22 23 24 0
25 26 27 28 0
29 30 31 32 0
33 34 35 36 0
37 38 39 40 0
41 42 43 44 0
-1 -5 0
-2 -6 0
-3 -7 0
-4 -8 0
-9 -5 0
-10 -6 0
-11 -7 0
-12 -8 0
-1 -13 0
-2 -14 0
-3 -15 0
-4 -16 0
-9 -17 0
-10 -18 0
-11 -19 0
-12 -20 0
-13 -17 0
-14 -18 0
-15 -19 0
-16 -20 0
-21 -5 0
-22 -6 0
-23 -7 0
-24 -8 0
-1 -25 0
-2 -26 0
-3 -27 0
-4 -28 0
-29 -5 0
-30 -6 0
-31 -7 0
-32 -8 0
-9 -25 0
-10 -26 0
-11 -27 0
-12 -28 0
-21 -13 0
-22 -14 0
-23 -15 0
-24 -16 0
-1 -33 0
-2 -34 0
-3 -35 0
-4 -36 0
-29 -17 0
-30 -18 0
-31 -19 0
-32 -20 0
-9 -37 0
-10 -38 0
-11 -39 0
-12 -40 0
-33 -17 0
-34 -18 0
-35 -19 0
-36 -20 0
-13 -37 0
-14 -38 0
-15 -39 0
-16 -40 0
-21 -41 0
-22 -42 0
-23 -43 0
-24 -44 0
-25 -41 0
-26 -42 0
-27 -43 0
-28 -44 0
-29 -41 0
-30 -42 0
-31 -43 0
-32 -44 0
-33 -41 0
-34 -42 0
-35 -43 0
-36 -44 0
-37 -41 0
-38 -42 0
-39 -43 0
-40 -44 0
-22 -1 41 0
-23 -1 41 0
-24 -1 41 0
-21 -2 42 0
-23 -2 42 0
-24 -2 42 0
-21 -3 43 0
-22 -3 43 0
-24 -3 43 0
-21 -4 44 0
-22 -4 44 0
-23 -4 44 0
-26 -5 41 0
-27 -5 41 0
-28 -5 41 0
-25 -6 42 0
-27 -6 42 0
-28 -6 42 0
-25 -7 43 0
-26 -7 43 0
-28 -7 43 0
-25 -8 44 0
-26 -8 44 0
-27 -8 44 0
-30 -9 41 0
-31 -9 41 0
-32 -9 41 0
-29 -10 42 0
-31 -10 42 0
-32 -10 42 0
-29 -11 43 0
-30 -11 43 0
-32 -11 43 0
-29 -12 44 0
-30 -12 44 0
-31 -12 44 0
-34 -13 41 0
-35 -13 41 0
-36 -13 41 0
-33 -14 42 0
-35 -14 42 0
-36 -14 42 0
-33 -15 43 0
-34 -15 43 0
-36 -15 43 0
-33 -16 44 0
-34 -16 44 0
-35 -16 44 0
-38 -17 41 0
-39 -17 41 0
-40 -17 41 0
-37 -18 42 0
-39 -18 42 0
-40 -18 42 0
-37 -19 43 0
-38 -19 43 0
-40 -19 43 0
-37 -20 44 0
-38 -20 44 0
-39 -20 44 0
-30 -21 37 0
-31 -21 37 0
-32 -21 37 0
-29 -22 38 0
-31 -22 38 0
-32 -22 38 0
-29 -23 39 0
-30 -23 39 0
-32 -23 39 0
-29 -24 40 0
-30 -24 40 0
-31 -24 40 0
-34 -25 37 0
-35 -25 37 0
-36 -25 37 0
-33 -26 38 0
-35 -26 38 0
-36 -26 38 0
-33 -27 39 0
-34 -27 39 0
-36 -27 39 0
-33 -28 40 0
-34 -28 40 0
-35 -28 40 0
